<number of tasks>
50

<cycle time>
1000

<order strength>
0.597


<task times>
1 505
2 503
3 164
4 448
5 405
6 574
7 364
8 570
9 430
10 375
11 472
12 658
13 428
14 399
15 444
16 552
17 452
18 382
19 554
20 573
21 433
22 463
23 607
24 419
25 414
26 720
27 763
28 589
29 475
30 369
31 587
32 498
33 463
34 329
35 435
36 486
37 617
38 401
39 421
40 799
41 435
42 609
43 466
44 394
45 356
46 598
47 437
48 558
49 554
50 572

<precedence relations>
1,6
2,7
3,8
4,20
4,21
5,9
5,10
6,11
7,12
8,11
9,11
9,12
10,13
11,14
11,15
11,16
12,15
13,15
13,16
14,18
15,17
15,19
15,20
16,20
16,21
17,22
18,24
19,23
20,26
21,25
21,26
22,27
23,29
24,28
25,30
25,31
26,30
26,31
27,32
28,34
29,33
30,34
30,35
30,38
32,37
33,38
34,36
34,39
34,40
35,39
35,44
36,41
37,42
38,42
38,44
39,45
39,49
40,43
41,46
42,48
43,50
44,47
44,49
44,50
45,50

<end>
